c Arquivo convertido de dwt__878.mtx
p edge 878 3285
e 1 2
e 1 22
e 1 23
e 2 3
e 2 22
e 2 23
e 2 24
e 3 4
e 3 23
e 3 24
e 3 25
e 4 5
e 4 24
e 4 25
e 4 26
e 5 6
e 5 25
e 5 26
e 5 27
e 6 7
e 6 26
e 6 27
e 6 28
e 7 8
e 7 27
e 7 28
e 7 29
e 8 9
e 8 28
e 8 29
e 8 30
e 9 10
e 9 29
e 9 30
e 9 31
e 10 11
e 10 30
e 10 31
e 10 32
e 11 12
e 11 31
e 11 32
e 11 33
e 12 13
e 12 32
e 12 33
e 12 34
e 13 14
e 13 33
e 13 34
e 13 35
e 14 15
e 14 34
e 14 35
e 14 36
e 15 16
e 15 35
e 15 36
e 15 37
e 16 17
e 16 36
e 16 37
e 16 38
e 17 18
e 17 37
e 17 38
e 17 39
e 18 19
e 18 38
e 18 39
e 18 40
e 19 20
e 19 39
e 19 40
e 19 41
e 20 21
e 20 40
e 20 41
e 20 42
e 21 41
e 21 42
e 22 23
e 22 43
e 22 44
e 23 24
e 23 43
e 23 44
e 23 45
e 24 25
e 24 44
e 24 45
e 24 46
e 25 26
e 25 45
e 25 46
e 25 47
e 26 27
e 26 46
e 26 47
e 26 48
e 27 28
e 27 47
e 27 48
e 27 49
e 28 29
e 28 48
e 28 49
e 28 50
e 29 30
e 29 49
e 29 50
e 29 51
e 30 31
e 30 50
e 30 51
e 30 52
e 31 32
e 31 51
e 31 52
e 31 53
e 32 33
e 32 52
e 32 53
e 32 54
e 33 34
e 33 53
e 33 54
e 33 55
e 34 35
e 34 54
e 34 55
e 34 56
e 35 36
e 35 55
e 35 56
e 35 57
e 36 37
e 36 56
e 36 57
e 36 58
e 37 38
e 37 57
e 37 58
e 37 59
e 38 39
e 38 58
e 38 59
e 38 60
e 39 40
e 39 59
e 39 60
e 39 61
e 40 41
e 40 60
e 40 61
e 40 62
e 41 42
e 41 61
e 41 62
e 41 63
e 42 62
e 42 63
e 43 44
e 43 64
e 43 65
e 44 45
e 44 64
e 44 65
e 44 66
e 45 46
e 45 65
e 45 66
e 45 67
e 46 47
e 46 66
e 46 67
e 46 68
e 47 48
e 47 67
e 47 68
e 47 69
e 48 49
e 48 68
e 48 69
e 48 70
e 49 50
e 49 69
e 49 70
e 49 71
e 50 51
e 50 70
e 50 71
e 50 72
e 51 52
e 51 71
e 51 72
e 51 73
e 52 53
e 52 72
e 52 73
e 52 74
e 53 54
e 53 73
e 53 74
e 53 75
e 54 55
e 54 74
e 54 75
e 54 76
e 55 56
e 55 75
e 55 76
e 55 77
e 56 57
e 56 76
e 56 77
e 56 78
e 57 58
e 57 77
e 57 78
e 57 79
e 58 59
e 58 78
e 58 79
e 58 80
e 59 60
e 59 79
e 59 80
e 59 81
e 60 61
e 60 80
e 60 81
e 60 82
e 61 62
e 61 81
e 61 82
e 61 83
e 62 63
e 62 82
e 62 83
e 62 84
e 63 83
e 63 84
e 64 65
e 64 85
e 64 86
e 65 66
e 65 85
e 65 86
e 65 87
e 66 67
e 66 86
e 66 87
e 66 88
e 67 68
e 67 87
e 67 88
e 67 89
e 68 69
e 68 88
e 68 89
e 68 90
e 69 70
e 69 89
e 69 90
e 69 91
e 70 71
e 70 90
e 70 91
e 70 92
e 71 72
e 71 91
e 71 92
e 71 93
e 72 73
e 72 92
e 72 93
e 72 94
e 73 74
e 73 93
e 73 94
e 73 95
e 74 75
e 74 94
e 74 95
e 74 96
e 75 76
e 75 95
e 75 96
e 75 97
e 76 77
e 76 96
e 76 97
e 76 98
e 77 78
e 77 97
e 77 98
e 77 99
e 78 79
e 78 98
e 78 99
e 78 100
e 79 80
e 79 99
e 79 100
e 79 101
e 80 81
e 80 100
e 80 101
e 80 102
e 81 82
e 81 101
e 81 102
e 81 103
e 82 83
e 82 102
e 82 103
e 82 104
e 83 84
e 83 103
e 83 104
e 83 105
e 84 104
e 84 105
e 85 86
e 85 106
e 85 107
e 86 87
e 86 106
e 86 107
e 86 108
e 87 88
e 87 107
e 87 108
e 87 109
e 88 89
e 88 108
e 88 109
e 88 110
e 89 90
e 89 109
e 89 110
e 89 111
e 90 91
e 90 110
e 90 111
e 90 112
e 91 92
e 91 111
e 91 112
e 91 113
e 92 93
e 92 112
e 92 113
e 92 114
e 93 94
e 93 113
e 93 114
e 93 115
e 94 95
e 94 114
e 94 115
e 94 116
e 95 96
e 95 115
e 95 116
e 95 117
e 96 97
e 96 116
e 96 117
e 96 118
e 97 98
e 97 117
e 97 118
e 97 119
e 98 99
e 98 118
e 98 119
e 98 120
e 99 100
e 99 119
e 99 120
e 99 121
e 100 101
e 100 120
e 100 121
e 100 122
e 101 102
e 101 121
e 101 122
e 101 123
e 102 103
e 102 122
e 102 123
e 102 124
e 103 104
e 103 123
e 103 124
e 103 125
e 104 105
e 104 124
e 104 125
e 104 126
e 105 125
e 105 126
e 106 107
e 106 127
e 106 128
e 107 108
e 107 127
e 107 128
e 107 129
e 108 109
e 108 128
e 108 129
e 108 130
e 109 110
e 109 129
e 109 130
e 109 131
e 110 111
e 110 130
e 110 131
e 110 132
e 111 112
e 111 131
e 111 132
e 111 133
e 112 113
e 112 132
e 112 133
e 112 134
e 113 114
e 113 133
e 113 134
e 113 135
e 114 115
e 114 134
e 114 135
e 114 136
e 115 116
e 115 135
e 115 136
e 115 137
e 116 117
e 116 136
e 116 137
e 116 138
e 117 118
e 117 137
e 117 138
e 117 139
e 118 119
e 118 138
e 118 139
e 118 140
e 119 120
e 119 139
e 119 140
e 119 141
e 120 121
e 120 140
e 120 141
e 120 142
e 121 122
e 121 141
e 121 142
e 121 143
e 122 123
e 122 142
e 122 143
e 122 144
e 123 124
e 123 143
e 123 144
e 123 145
e 124 125
e 124 144
e 124 145
e 124 146
e 125 126
e 125 145
e 125 146
e 125 147
e 126 146
e 126 147
e 127 128
e 127 148
e 127 149
e 128 129
e 128 148
e 128 149
e 128 150
e 129 130
e 129 149
e 129 150
e 129 151
e 130 131
e 130 150
e 130 151
e 130 152
e 131 132
e 131 151
e 131 152
e 131 153
e 132 133
e 132 152
e 132 153
e 132 154
e 133 134
e 133 153
e 133 154
e 133 155
e 134 135
e 134 154
e 134 155
e 134 156
e 135 136
e 135 155
e 135 156
e 135 157
e 136 137
e 136 156
e 136 157
e 136 158
e 137 138
e 137 157
e 137 158
e 137 159
e 138 139
e 138 158
e 138 159
e 138 160
e 139 140
e 139 159
e 139 160
e 139 161
e 140 141
e 140 160
e 140 161
e 140 162
e 141 142
e 141 161
e 141 162
e 141 163
e 142 143
e 142 162
e 142 163
e 142 164
e 143 144
e 143 163
e 143 164
e 143 165
e 144 145
e 144 164
e 144 165
e 144 166
e 145 146
e 145 165
e 145 166
e 145 167
e 146 147
e 146 166
e 146 167
e 146 168
e 147 167
e 147 168
e 148 149
e 148 169
e 148 170
e 149 150
e 149 169
e 149 170
e 149 171
e 150 151
e 150 170
e 150 171
e 150 172
e 151 152
e 151 171
e 151 172
e 151 173
e 152 153
e 152 172
e 152 173
e 152 174
e 153 154
e 153 173
e 153 174
e 153 175
e 154 155
e 154 174
e 154 175
e 154 176
e 155 156
e 155 175
e 155 176
e 155 177
e 156 157
e 156 176
e 156 177
e 156 178
e 157 158
e 157 177
e 157 178
e 157 179
e 158 159
e 158 178
e 158 179
e 158 180
e 159 160
e 159 179
e 159 180
e 159 181
e 160 161
e 160 180
e 160 181
e 160 182
e 161 162
e 161 181
e 161 182
e 161 183
e 162 163
e 162 182
e 162 183
e 162 184
e 163 164
e 163 183
e 163 184
e 163 185
e 164 165
e 164 184
e 164 185
e 164 186
e 165 166
e 165 185
e 165 186
e 165 187
e 166 167
e 166 186
e 166 187
e 166 188
e 167 168
e 167 187
e 167 188
e 167 189
e 168 188
e 168 189
e 169 170
e 169 190
e 169 191
e 170 171
e 170 190
e 170 191
e 170 192
e 171 172
e 171 191
e 171 192
e 171 193
e 172 173
e 172 192
e 172 193
e 172 194
e 173 174
e 173 193
e 173 194
e 173 195
e 174 175
e 174 194
e 174 195
e 174 196
e 175 176
e 175 195
e 175 196
e 175 197
e 176 177
e 176 196
e 176 197
e 176 198
e 177 178
e 177 197
e 177 198
e 177 199
e 178 179
e 178 198
e 178 199
e 178 200
e 179 180
e 179 199
e 179 200
e 179 201
e 180 181
e 180 200
e 180 201
e 180 202
e 181 182
e 181 201
e 181 202
e 181 203
e 182 183
e 182 202
e 182 203
e 182 204
e 183 184
e 183 203
e 183 204
e 183 205
e 184 185
e 184 204
e 184 205
e 184 206
e 185 186
e 185 205
e 185 206
e 185 207
e 186 187
e 186 206
e 186 207
e 186 208
e 187 188
e 187 207
e 187 208
e 187 209
e 188 189
e 188 208
e 188 209
e 188 210
e 189 209
e 189 210
e 190 191
e 190 211
e 190 212
e 191 192
e 191 211
e 191 212
e 191 213
e 192 193
e 192 212
e 192 213
e 192 214
e 193 194
e 193 213
e 193 214
e 193 215
e 194 195
e 194 214
e 194 215
e 194 216
e 195 196
e 195 215
e 195 216
e 195 217
e 196 197
e 196 216
e 196 217
e 196 218
e 197 198
e 197 217
e 197 218
e 197 219
e 198 199
e 198 218
e 198 219
e 198 220
e 199 200
e 199 219
e 199 220
e 199 221
e 200 201
e 200 220
e 200 221
e 200 222
e 201 202
e 201 221
e 201 222
e 201 223
e 202 203
e 202 222
e 202 223
e 202 224
e 203 204
e 203 223
e 203 224
e 203 225
e 204 205
e 204 224
e 204 225
e 204 226
e 205 206
e 205 225
e 205 226
e 205 227
e 206 207
e 206 226
e 206 227
e 206 228
e 207 208
e 207 227
e 207 228
e 207 229
e 208 209
e 208 228
e 208 229
e 208 230
e 209 210
e 209 229
e 209 230
e 209 231
e 210 230
e 210 231
e 211 212
e 211 232
e 211 233
e 212 213
e 212 232
e 212 233
e 212 234
e 213 214
e 213 233
e 213 234
e 213 235
e 214 215
e 214 234
e 214 235
e 214 236
e 215 216
e 215 235
e 215 236
e 215 237
e 216 217
e 216 236
e 216 237
e 216 238
e 217 218
e 217 237
e 217 238
e 217 239
e 218 219
e 218 238
e 218 239
e 218 240
e 219 220
e 219 239
e 219 240
e 219 241
e 220 221
e 220 240
e 220 241
e 220 242
e 221 222
e 221 241
e 221 242
e 221 243
e 222 223
e 222 242
e 222 243
e 222 244
e 223 224
e 223 243
e 223 244
e 223 245
e 224 225
e 224 244
e 224 245
e 224 246
e 225 226
e 225 245
e 225 246
e 225 247
e 226 227
e 226 246
e 226 247
e 226 248
e 227 228
e 227 247
e 227 248
e 227 249
e 228 229
e 228 248
e 228 249
e 228 250
e 229 230
e 229 249
e 229 250
e 229 251
e 230 231
e 230 250
e 230 251
e 230 252
e 231 251
e 231 252
e 232 233
e 232 253
e 232 254
e 233 234
e 233 253
e 233 254
e 233 255
e 234 235
e 234 254
e 234 255
e 234 256
e 235 236
e 235 255
e 235 256
e 235 257
e 236 237
e 236 256
e 236 257
e 236 258
e 237 238
e 237 257
e 237 258
e 237 259
e 238 239
e 238 258
e 238 259
e 238 260
e 239 240
e 239 259
e 239 260
e 239 261
e 240 241
e 240 260
e 240 261
e 240 262
e 241 242
e 241 261
e 241 262
e 241 263
e 242 243
e 242 262
e 242 263
e 242 264
e 243 244
e 243 263
e 243 264
e 243 265
e 244 245
e 244 264
e 244 265
e 244 266
e 245 246
e 245 265
e 245 266
e 245 267
e 246 247
e 246 266
e 246 267
e 246 268
e 247 248
e 247 267
e 247 268
e 247 269
e 248 249
e 248 268
e 248 269
e 248 270
e 249 250
e 249 269
e 249 270
e 249 271
e 250 251
e 250 270
e 250 271
e 250 272
e 251 252
e 251 271
e 251 272
e 251 273
e 252 272
e 252 273
e 253 254
e 253 274
e 253 275
e 254 255
e 254 274
e 254 275
e 254 276
e 255 256
e 255 275
e 255 276
e 255 277
e 256 257
e 256 276
e 256 277
e 256 278
e 257 258
e 257 277
e 257 278
e 257 279
e 258 259
e 258 278
e 258 279
e 258 280
e 259 260
e 259 279
e 259 280
e 259 281
e 260 261
e 260 280
e 260 281
e 260 282
e 261 262
e 261 281
e 261 282
e 261 283
e 262 263
e 262 282
e 262 283
e 262 284
e 263 264
e 263 283
e 263 284
e 263 285
e 264 265
e 264 284
e 264 285
e 264 286
e 265 266
e 265 285
e 265 286
e 265 287
e 266 267
e 266 286
e 266 287
e 266 288
e 267 268
e 267 287
e 267 288
e 267 289
e 268 269
e 268 288
e 268 289
e 268 290
e 269 270
e 269 289
e 269 290
e 269 291
e 270 271
e 270 290
e 270 291
e 270 292
e 271 272
e 271 291
e 271 292
e 271 293
e 272 273
e 272 292
e 272 293
e 272 294
e 273 293
e 273 294
e 274 275
e 274 295
e 274 296
e 275 276
e 275 295
e 275 296
e 275 297
e 276 277
e 276 296
e 276 297
e 276 298
e 277 278
e 277 297
e 277 298
e 277 299
e 278 279
e 278 298
e 278 299
e 278 300
e 279 280
e 279 299
e 279 300
e 279 301
e 280 281
e 280 300
e 280 301
e 280 302
e 281 282
e 281 301
e 281 302
e 281 303
e 282 283
e 282 302
e 282 303
e 282 304
e 283 284
e 283 303
e 283 304
e 283 305
e 284 285
e 284 304
e 284 305
e 284 306
e 285 286
e 285 305
e 285 306
e 285 307
e 286 287
e 286 306
e 286 307
e 286 308
e 287 288
e 287 307
e 287 308
e 287 309
e 288 289
e 288 308
e 288 309
e 288 310
e 289 290
e 289 309
e 289 310
e 289 311
e 290 291
e 290 310
e 290 311
e 290 312
e 291 292
e 291 311
e 291 312
e 291 313
e 292 293
e 292 312
e 292 313
e 292 314
e 293 294
e 293 313
e 293 314
e 293 315
e 294 314
e 294 315
e 295 296
e 295 316
e 295 317
e 296 297
e 296 316
e 296 317
e 296 318
e 297 298
e 297 317
e 297 318
e 297 319
e 298 299
e 298 318
e 298 319
e 298 320
e 299 300
e 299 319
e 299 320
e 299 321
e 300 301
e 300 320
e 300 321
e 300 322
e 301 302
e 301 321
e 301 322
e 301 323
e 302 303
e 302 322
e 302 323
e 302 324
e 303 304
e 303 323
e 303 324
e 303 325
e 304 305
e 304 324
e 304 325
e 304 326
e 305 306
e 305 325
e 305 326
e 305 327
e 306 307
e 306 326
e 306 327
e 306 328
e 307 308
e 307 327
e 307 328
e 307 329
e 308 309
e 308 328
e 308 329
e 308 330
e 309 310
e 309 329
e 309 330
e 309 331
e 310 311
e 310 330
e 310 331
e 310 332
e 311 312
e 311 331
e 311 332
e 311 333
e 312 313
e 312 332
e 312 333
e 312 334
e 313 314
e 313 333
e 313 334
e 313 335
e 314 315
e 314 334
e 314 335
e 314 336
e 315 335
e 315 336
e 316 317
e 316 337
e 316 338
e 317 318
e 317 337
e 317 338
e 317 339
e 318 319
e 318 338
e 318 339
e 318 340
e 319 320
e 319 339
e 319 340
e 319 341
e 320 321
e 320 340
e 320 341
e 320 342
e 321 322
e 321 341
e 321 342
e 321 343
e 322 323
e 322 342
e 322 343
e 322 344
e 323 324
e 323 343
e 323 344
e 323 345
e 324 325
e 324 344
e 324 345
e 324 346
e 325 326
e 325 345
e 325 346
e 325 347
e 326 327
e 326 346
e 326 347
e 326 348
e 327 328
e 327 347
e 327 348
e 327 349
e 328 329
e 328 348
e 328 349
e 328 350
e 329 330
e 329 349
e 329 350
e 329 351
e 330 331
e 330 350
e 330 351
e 330 352
e 331 332
e 331 351
e 331 352
e 331 353
e 332 333
e 332 352
e 332 353
e 332 354
e 333 334
e 333 353
e 333 354
e 333 355
e 334 335
e 334 354
e 334 355
e 334 356
e 335 336
e 335 355
e 335 356
e 335 357
e 336 356
e 336 357
e 337 338
e 338 339
e 338 360
e 339 340
e 339 360
e 339 361
e 340 341
e 340 360
e 340 361
e 340 362
e 341 342
e 341 361
e 341 362
e 341 363
e 342 343
e 342 362
e 342 363
e 342 364
e 343 344
e 343 363
e 343 364
e 343 365
e 344 345
e 344 364
e 344 365
e 344 366
e 345 346
e 345 365
e 345 366
e 345 367
e 346 347
e 346 366
e 346 367
e 346 368
e 347 348
e 347 367
e 347 368
e 347 369
e 348 349
e 348 368
e 348 369
e 348 370
e 349 350
e 349 369
e 349 370
e 349 371
e 350 351
e 350 370
e 350 371
e 350 372
e 351 352
e 351 371
e 351 372
e 351 373
e 352 353
e 352 372
e 352 373
e 352 374
e 353 354
e 353 373
e 353 374
e 353 375
e 354 355
e 354 374
e 354 375
e 354 376
e 355 356
e 355 375
e 355 376
e 355 377
e 356 357
e 356 376
e 356 377
e 356 378
e 357 377
e 357 378
e 358 359
e 358 379
e 358 380
e 358 862
e 358 874
e 359 379
e 359 380
e 359 381
e 359 862
e 359 863
e 359 874
e 359 878
e 360 361
e 361 362
e 361 382
e 361 383
e 362 363
e 362 382
e 362 383
e 362 384
e 363 364
e 363 383
e 363 384
e 363 385
e 364 365
e 364 384
e 364 385
e 364 386
e 365 366
e 365 385
e 365 386
e 365 387
e 366 367
e 366 386
e 366 387
e 366 388
e 367 368
e 367 387
e 367 388
e 367 389
e 368 369
e 368 388
e 368 389
e 368 390
e 369 370
e 369 389
e 369 390
e 369 391
e 370 371
e 370 390
e 370 391
e 370 392
e 371 372
e 371 391
e 371 392
e 371 393
e 372 373
e 372 392
e 372 393
e 372 394
e 373 374
e 373 393
e 373 394
e 373 395
e 374 375
e 374 394
e 374 395
e 374 396
e 375 376
e 375 395
e 375 396
e 375 397
e 376 377
e 376 396
e 376 397
e 376 398
e 377 378
e 377 397
e 377 398
e 377 399
e 378 398
e 378 399
e 379 380
e 379 400
e 379 401
e 380 381
e 380 400
e 380 401
e 380 402
e 380 878
e 381 401
e 381 402
e 381 403
e 381 864
e 381 875
e 381 878
e 382 383
e 382 404
e 383 384
e 383 404
e 383 405
e 384 385
e 384 404
e 384 405
e 384 406
e 385 386
e 385 405
e 385 406
e 385 407
e 386 387
e 386 406
e 386 407
e 386 408
e 387 388
e 387 407
e 387 408
e 387 409
e 388 389
e 388 408
e 388 409
e 388 410
e 389 390
e 389 409
e 389 410
e 389 411
e 390 391
e 390 410
e 390 411
e 390 412
e 391 392
e 391 411
e 391 412
e 391 413
e 392 393
e 392 412
e 392 413
e 392 414
e 393 394
e 393 413
e 393 414
e 393 415
e 394 395
e 394 414
e 394 415
e 394 416
e 395 396
e 395 415
e 395 416
e 395 417
e 396 397
e 396 416
e 396 417
e 396 418
e 397 398
e 397 417
e 397 418
e 397 419
e 398 399
e 398 418
e 398 419
e 398 420
e 399 419
e 399 420
e 400 401
e 400 421
e 400 422
e 401 402
e 401 421
e 401 422
e 401 423
e 402 403
e 402 422
e 402 423
e 402 424
e 402 875
e 403 423
e 403 424
e 403 865
e 403 866
e 403 867
e 403 875
e 404 405
e 404 425
e 404 426
e 405 406
e 405 425
e 405 426
e 405 427
e 406 407
e 406 426
e 406 427
e 406 428
e 407 408
e 407 427
e 407 428
e 407 429
e 408 409
e 408 428
e 408 429
e 408 430
e 409 410
e 409 429
e 409 430
e 409 431
e 410 411
e 410 430
e 410 431
e 410 432
e 411 412
e 411 431
e 411 432
e 411 433
e 412 413
e 412 432
e 412 433
e 412 434
e 413 414
e 413 433
e 413 434
e 413 435
e 414 415
e 414 434
e 414 435
e 414 436
e 415 416
e 415 435
e 415 436
e 415 437
e 416 417
e 416 436
e 416 437
e 416 438
e 417 418
e 417 437
e 417 438
e 417 439
e 418 419
e 418 438
e 418 439
e 418 440
e 419 420
e 419 439
e 419 440
e 419 441
e 420 440
e 420 441
e 421 422
e 421 442
e 421 443
e 422 423
e 422 442
e 422 443
e 422 444
e 423 424
e 423 443
e 423 444
e 423 445
e 424 444
e 424 445
e 424 866
e 424 867
e 424 868
e 425 426
e 425 446
e 425 447
e 426 427
e 426 446
e 426 447
e 426 448
e 427 428
e 427 447
e 427 448
e 427 449
e 428 429
e 428 448
e 428 449
e 428 450
e 429 430
e 429 449
e 429 450
e 429 451
e 430 431
e 430 450
e 430 451
e 430 452
e 431 432
e 431 451
e 431 452
e 431 453
e 432 433
e 432 452
e 432 453
e 432 454
e 433 434
e 433 453
e 433 454
e 433 455
e 434 435
e 434 454
e 434 455
e 434 456
e 435 436
e 435 455
e 435 456
e 435 457
e 436 437
e 436 456
e 436 457
e 436 458
e 437 438
e 437 457
e 437 458
e 437 459
e 438 439
e 438 458
e 438 459
e 438 460
e 439 440
e 439 459
e 439 460
e 439 461
e 440 441
e 440 460
e 440 461
e 440 462
e 441 461
e 441 462
e 442 443
e 442 463
e 442 464
e 443 444
e 443 463
e 443 464
e 443 465
e 444 445
e 444 464
e 444 465
e 444 876
e 445 465
e 445 867
e 445 868
e 445 869
e 445 876
e 446 447
e 446 466
e 446 467
e 446 468
e 447 448
e 447 467
e 447 468
e 447 469
e 448 449
e 448 468
e 448 469
e 448 470
e 449 450
e 449 469
e 449 470
e 449 471
e 450 451
e 450 470
e 450 471
e 450 472
e 451 452
e 451 471
e 451 472
e 451 473
e 452 453
e 452 472
e 452 473
e 452 474
e 453 454
e 453 473
e 453 474
e 453 475
e 454 455
e 454 474
e 454 475
e 454 476
e 455 456
e 455 475
e 455 476
e 455 477
e 456 457
e 456 476
e 456 477
e 456 478
e 457 458
e 457 477
e 457 478
e 457 479
e 458 459
e 458 478
e 458 479
e 458 480
e 459 460
e 459 479
e 459 480
e 459 481
e 460 461
e 460 480
e 460 481
e 460 482
e 461 462
e 461 481
e 461 482
e 461 483
e 462 482
e 462 483
e 463 464
e 463 484
e 463 485
e 464 465
e 464 484
e 464 485
e 464 877
e 465 485
e 465 870
e 465 876
e 465 877
e 466 467
e 466 487
e 466 488
e 467 468
e 467 487
e 467 488
e 467 489
e 468 469
e 468 488
e 468 489
e 468 490
e 469 470
e 469 489
e 469 490
e 469 491
e 470 471
e 470 490
e 470 491
e 470 492
e 471 472
e 471 491
e 471 492
e 471 493
e 472 473
e 472 492
e 472 493
e 472 494
e 473 474
e 473 493
e 473 494
e 473 495
e 474 475
e 474 494
e 474 495
e 474 496
e 475 476
e 475 495
e 475 496
e 475 497
e 476 477
e 476 496
e 476 497
e 476 498
e 477 478
e 477 497
e 477 498
e 477 499
e 478 479
e 478 498
e 478 499
e 478 500
e 479 480
e 479 499
e 479 500
e 479 501
e 480 481
e 480 500
e 480 501
e 480 502
e 481 482
e 481 501
e 481 502
e 481 503
e 482 483
e 482 502
e 482 503
e 482 504
e 483 503
e 483 504
e 484 485
e 484 872
e 484 873
e 485 871
e 485 872
e 485 873
e 485 877
e 486 487
e 486 506
e 486 507
e 486 508
e 486 877
e 487 488
e 487 507
e 487 508
e 487 509
e 487 877
e 488 489
e 488 508
e 488 509
e 488 510
e 489 490
e 489 509
e 489 510
e 489 511
e 490 491
e 490 510
e 490 511
e 490 512
e 491 492
e 491 511
e 491 512
e 491 513
e 492 493
e 492 512
e 492 513
e 492 514
e 493 494
e 493 513
e 493 514
e 493 515
e 494 495
e 494 514
e 494 515
e 494 516
e 495 496
e 495 515
e 495 516
e 495 517
e 496 497
e 496 516
e 496 517
e 496 518
e 497 498
e 497 517
e 497 518
e 497 519
e 498 499
e 498 518
e 498 519
e 498 520
e 499 500
e 499 519
e 499 520
e 499 521
e 500 501
e 500 520
e 500 521
e 500 522
e 501 502
e 501 521
e 501 522
e 501 523
e 502 503
e 502 522
e 502 523
e 502 524
e 503 504
e 503 523
e 503 524
e 503 525
e 504 524
e 504 525
e 505 506
e 505 526
e 505 527
e 506 507
e 506 526
e 506 527
e 506 528
e 507 508
e 507 527
e 507 528
e 507 529
e 508 509
e 508 528
e 508 529
e 508 530
e 509 510
e 509 529
e 509 530
e 509 531
e 510 511
e 510 530
e 510 531
e 510 532
e 511 512
e 511 531
e 511 532
e 511 533
e 512 513
e 512 532
e 512 533
e 512 534
e 513 514
e 513 533
e 513 534
e 513 535
e 514 515
e 514 534
e 514 535
e 514 536
e 515 516
e 515 535
e 515 536
e 515 537
e 516 517
e 516 536
e 516 537
e 516 538
e 517 518
e 517 537
e 517 538
e 517 539
e 518 519
e 518 538
e 518 539
e 518 540
e 519 520
e 519 539
e 519 540
e 519 541
e 520 521
e 520 540
e 520 541
e 520 542
e 521 522
e 521 541
e 521 542
e 521 543
e 522 523
e 522 542
e 522 543
e 522 544
e 523 524
e 523 543
e 523 544
e 523 545
e 524 525
e 524 544
e 524 545
e 524 546
e 525 545
e 525 546
e 526 527
e 526 547
e 526 548
e 527 528
e 527 547
e 527 548
e 527 549
e 528 529
e 528 548
e 528 549
e 528 550
e 529 530
e 529 549
e 529 550
e 529 551
e 530 531
e 530 550
e 530 551
e 530 552
e 531 532
e 531 551
e 531 552
e 531 553
e 532 533
e 532 552
e 532 553
e 532 554
e 533 534
e 533 553
e 533 554
e 533 555
e 534 535
e 534 554
e 534 555
e 534 556
e 535 536
e 535 555
e 535 556
e 535 557
e 536 537
e 536 556
e 536 557
e 536 558
e 537 538
e 537 557
e 537 558
e 537 559
e 538 539
e 538 558
e 538 559
e 538 560
e 539 540
e 539 559
e 539 560
e 539 561
e 540 541
e 540 560
e 540 561
e 540 562
e 541 542
e 541 561
e 541 562
e 541 563
e 542 543
e 542 562
e 542 563
e 542 564
e 543 544
e 543 563
e 543 564
e 543 565
e 544 545
e 544 564
e 544 565
e 544 566
e 545 546
e 545 565
e 545 566
e 545 567
e 546 566
e 546 567
e 547 548
e 547 568
e 547 569
e 548 549
e 548 568
e 548 569
e 548 570
e 549 550
e 549 569
e 549 570
e 549 571
e 550 551
e 550 570
e 550 571
e 550 572
e 551 552
e 551 571
e 551 572
e 551 573
e 552 553
e 552 572
e 552 573
e 552 574
e 553 554
e 553 573
e 553 574
e 553 575
e 554 555
e 554 574
e 554 575
e 554 576
e 555 556
e 555 575
e 555 576
e 555 577
e 556 557
e 556 576
e 556 577
e 556 578
e 557 558
e 557 577
e 557 578
e 557 579
e 558 559
e 558 578
e 558 579
e 558 580
e 559 560
e 559 579
e 559 580
e 559 581
e 560 561
e 560 580
e 560 581
e 560 582
e 561 562
e 561 581
e 561 582
e 561 583
e 562 563
e 562 582
e 562 583
e 562 584
e 563 564
e 563 583
e 563 584
e 563 585
e 564 565
e 564 584
e 564 585
e 564 586
e 565 566
e 565 585
e 565 586
e 565 587
e 566 567
e 566 586
e 566 587
e 566 588
e 567 587
e 567 588
e 568 569
e 568 589
e 568 590
e 569 570
e 569 589
e 569 590
e 569 591
e 570 571
e 570 590
e 570 591
e 570 592
e 571 572
e 571 591
e 571 592
e 571 593
e 572 573
e 572 592
e 572 593
e 572 594
e 573 574
e 573 593
e 573 594
e 573 595
e 574 575
e 574 594
e 574 595
e 574 596
e 575 576
e 575 595
e 575 596
e 575 597
e 576 577
e 576 596
e 576 597
e 576 598
e 577 578
e 577 597
e 577 598
e 577 599
e 578 579
e 578 598
e 578 599
e 578 600
e 579 580
e 579 599
e 579 600
e 579 601
e 580 581
e 580 600
e 580 601
e 580 602
e 581 582
e 581 601
e 581 602
e 581 603
e 582 583
e 582 602
e 582 603
e 582 604
e 583 584
e 583 603
e 583 604
e 583 605
e 584 585
e 584 604
e 584 605
e 584 606
e 585 586
e 585 605
e 585 606
e 585 607
e 586 587
e 586 606
e 586 607
e 586 608
e 587 588
e 587 607
e 587 608
e 587 609
e 588 608
e 588 609
e 589 590
e 589 610
e 589 611
e 590 591
e 590 610
e 590 611
e 590 612
e 591 592
e 591 611
e 591 612
e 591 613
e 592 593
e 592 612
e 592 613
e 592 614
e 593 594
e 593 613
e 593 614
e 593 615
e 594 595
e 594 614
e 594 615
e 594 616
e 595 596
e 595 615
e 595 616
e 595 617
e 596 597
e 596 616
e 596 617
e 596 618
e 597 598
e 597 617
e 597 618
e 597 619
e 598 599
e 598 618
e 598 619
e 598 620
e 599 600
e 599 619
e 599 620
e 599 621
e 600 601
e 600 620
e 600 621
e 600 622
e 601 602
e 601 621
e 601 622
e 601 623
e 602 603
e 602 622
e 602 623
e 602 624
e 603 604
e 603 623
e 603 624
e 603 625
e 604 605
e 604 624
e 604 625
e 604 626
e 605 606
e 605 625
e 605 626
e 605 627
e 606 607
e 606 626
e 606 627
e 606 628
e 607 608
e 607 627
e 607 628
e 607 629
e 608 609
e 608 628
e 608 629
e 608 630
e 609 629
e 609 630
e 610 611
e 610 631
e 610 632
e 611 612
e 611 631
e 611 632
e 611 633
e 612 613
e 612 632
e 612 633
e 612 634
e 613 614
e 613 633
e 613 634
e 613 635
e 614 615
e 614 634
e 614 635
e 614 636
e 615 616
e 615 635
e 615 636
e 615 637
e 616 617
e 616 636
e 616 637
e 616 638
e 617 618
e 617 637
e 617 638
e 617 639
e 618 619
e 618 638
e 618 639
e 618 640
e 619 620
e 619 639
e 619 640
e 619 641
e 620 621
e 620 640
e 620 641
e 620 642
e 621 622
e 621 641
e 621 642
e 621 643
e 622 623
e 622 642
e 622 643
e 622 644
e 623 624
e 623 643
e 623 644
e 623 645
e 624 625
e 624 644
e 624 645
e 624 646
e 625 626
e 625 645
e 625 646
e 625 647
e 626 627
e 626 646
e 626 647
e 626 648
e 627 628
e 627 647
e 627 648
e 627 649
e 628 629
e 628 648
e 628 649
e 628 650
e 629 630
e 629 649
e 629 650
e 629 651
e 630 650
e 630 651
e 631 632
e 631 652
e 631 653
e 632 633
e 632 652
e 632 653
e 632 654
e 633 634
e 633 653
e 633 654
e 633 655
e 634 635
e 634 654
e 634 655
e 634 656
e 635 636
e 635 655
e 635 656
e 635 657
e 636 637
e 636 656
e 636 657
e 636 658
e 637 638
e 637 657
e 637 658
e 637 659
e 638 639
e 638 658
e 638 659
e 638 660
e 639 640
e 639 659
e 639 660
e 639 661
e 640 641
e 640 660
e 640 661
e 640 662
e 641 642
e 641 661
e 641 662
e 641 663
e 642 643
e 642 662
e 642 663
e 642 664
e 643 644
e 643 663
e 643 664
e 643 665
e 644 645
e 644 664
e 644 665
e 644 666
e 645 646
e 645 665
e 645 666
e 645 667
e 646 647
e 646 666
e 646 667
e 646 668
e 647 648
e 647 667
e 647 668
e 647 669
e 648 649
e 648 668
e 648 669
e 648 670
e 649 650
e 649 669
e 649 670
e 649 671
e 650 651
e 650 670
e 650 671
e 650 672
e 651 671
e 651 672
e 652 653
e 652 673
e 652 674
e 653 654
e 653 673
e 653 674
e 653 675
e 654 655
e 654 674
e 654 675
e 654 676
e 655 656
e 655 675
e 655 676
e 655 677
e 656 657
e 656 676
e 656 677
e 656 678
e 657 658
e 657 677
e 657 678
e 657 679
e 658 659
e 658 678
e 658 679
e 658 680
e 659 660
e 659 679
e 659 680
e 659 681
e 660 661
e 660 680
e 660 681
e 660 682
e 661 662
e 661 681
e 661 682
e 661 683
e 662 663
e 662 682
e 662 683
e 662 684
e 663 664
e 663 683
e 663 684
e 663 685
e 664 665
e 664 684
e 664 685
e 664 686
e 665 666
e 665 685
e 665 686
e 665 687
e 666 667
e 666 686
e 666 687
e 666 688
e 667 668
e 667 687
e 667 688
e 667 689
e 668 669
e 668 688
e 668 689
e 668 690
e 669 670
e 669 689
e 669 690
e 669 691
e 670 671
e 670 690
e 670 691
e 670 692
e 671 672
e 671 691
e 671 692
e 671 693
e 672 692
e 672 693
e 673 674
e 673 694
e 673 695
e 674 675
e 674 694
e 674 695
e 674 696
e 675 676
e 675 695
e 675 696
e 675 697
e 676 677
e 676 696
e 676 697
e 676 698
e 677 678
e 677 697
e 677 698
e 677 699
e 678 679
e 678 698
e 678 699
e 678 700
e 679 680
e 679 699
e 679 700
e 679 701
e 680 681
e 680 700
e 680 701
e 680 702
e 681 682
e 681 701
e 681 702
e 681 703
e 682 683
e 682 702
e 682 703
e 682 704
e 683 684
e 683 703
e 683 704
e 683 705
e 684 685
e 684 704
e 684 705
e 684 706
e 685 686
e 685 705
e 685 706
e 685 707
e 686 687
e 686 706
e 686 707
e 686 708
e 687 688
e 687 707
e 687 708
e 687 709
e 688 689
e 688 708
e 688 709
e 688 710
e 689 690
e 689 709
e 689 710
e 689 711
e 690 691
e 690 710
e 690 711
e 690 712
e 691 692
e 691 711
e 691 712
e 691 713
e 692 693
e 692 712
e 692 713
e 692 714
e 693 713
e 693 714
e 694 695
e 694 715
e 694 716
e 695 696
e 695 715
e 695 716
e 695 717
e 696 697
e 696 716
e 696 717
e 696 718
e 697 698
e 697 717
e 697 718
e 697 719
e 698 699
e 698 718
e 698 719
e 698 720
e 699 700
e 699 719
e 699 720
e 699 721
e 700 701
e 700 720
e 700 721
e 700 722
e 701 702
e 701 721
e 701 722
e 701 723
e 702 703
e 702 722
e 702 723
e 702 724
e 703 704
e 703 723
e 703 724
e 703 725
e 704 705
e 704 724
e 704 725
e 704 726
e 705 706
e 705 725
e 705 726
e 705 727
e 706 707
e 706 726
e 706 727
e 706 728
e 707 708
e 707 727
e 707 728
e 707 729
e 708 709
e 708 728
e 708 729
e 708 730
e 709 710
e 709 729
e 709 730
e 709 731
e 710 711
e 710 730
e 710 731
e 710 732
e 711 712
e 711 731
e 711 732
e 711 733
e 712 713
e 712 732
e 712 733
e 712 734
e 713 714
e 713 733
e 713 734
e 713 735
e 714 734
e 714 735
e 715 716
e 715 736
e 715 737
e 716 717
e 716 736
e 716 737
e 716 738
e 717 718
e 717 737
e 717 738
e 717 739
e 718 719
e 718 738
e 718 739
e 718 740
e 719 720
e 719 739
e 719 740
e 719 741
e 720 721
e 720 740
e 720 741
e 720 742
e 721 722
e 721 741
e 721 742
e 721 743
e 722 723
e 722 742
e 722 743
e 722 744
e 723 724
e 723 743
e 723 744
e 723 745
e 724 725
e 724 744
e 724 745
e 724 746
e 725 726
e 725 745
e 725 746
e 725 747
e 726 727
e 726 746
e 726 747
e 726 748
e 727 728
e 727 747
e 727 748
e 727 749
e 728 729
e 728 748
e 728 749
e 728 750
e 729 730
e 729 749
e 729 750
e 729 751
e 730 731
e 730 750
e 730 751
e 730 752
e 731 732
e 731 751
e 731 752
e 731 753
e 732 733
e 732 752
e 732 753
e 732 754
e 733 734
e 733 753
e 733 754
e 733 755
e 734 735
e 734 754
e 734 755
e 734 756
e 735 755
e 735 756
e 736 737
e 736 757
e 736 758
e 737 738
e 737 757
e 737 758
e 737 759
e 738 739
e 738 758
e 738 759
e 738 760
e 739 740
e 739 759
e 739 760
e 739 761
e 740 741
e 740 760
e 740 761
e 740 762
e 741 742
e 741 761
e 741 762
e 741 763
e 742 743
e 742 762
e 742 763
e 742 764
e 743 744
e 743 763
e 743 764
e 743 765
e 744 745
e 744 764
e 744 765
e 744 766
e 745 746
e 745 765
e 745 766
e 745 767
e 746 747
e 746 766
e 746 767
e 746 768
e 747 748
e 747 767
e 747 768
e 747 769
e 748 749
e 748 768
e 748 769
e 748 770
e 749 750
e 749 769
e 749 770
e 749 771
e 750 751
e 750 770
e 750 771
e 750 772
e 751 752
e 751 771
e 751 772
e 751 773
e 752 753
e 752 772
e 752 773
e 752 774
e 753 754
e 753 773
e 753 774
e 753 775
e 754 755
e 754 774
e 754 775
e 754 776
e 755 756
e 755 775
e 755 776
e 755 777
e 756 776
e 756 777
e 757 758
e 757 778
e 757 779
e 758 759
e 758 778
e 758 779
e 758 780
e 759 760
e 759 779
e 759 780
e 759 781
e 760 761
e 760 780
e 760 781
e 760 782
e 761 762
e 761 781
e 761 782
e 761 783
e 762 763
e 762 782
e 762 783
e 762 784
e 763 764
e 763 783
e 763 784
e 763 785
e 764 765
e 764 784
e 764 785
e 764 786
e 765 766
e 765 785
e 765 786
e 765 787
e 766 767
e 766 786
e 766 787
e 766 788
e 767 768
e 767 787
e 767 788
e 767 789
e 768 769
e 768 788
e 768 789
e 768 790
e 769 770
e 769 789
e 769 790
e 769 791
e 770 771
e 770 790
e 770 791
e 770 792
e 771 772
e 771 791
e 771 792
e 771 793
e 772 773
e 772 792
e 772 793
e 772 794
e 773 774
e 773 793
e 773 794
e 773 795
e 774 775
e 774 794
e 774 795
e 774 796
e 775 776
e 775 795
e 775 796
e 775 797
e 776 777
e 776 796
e 776 797
e 776 798
e 777 797
e 777 798
e 778 779
e 778 799
e 778 800
e 779 780
e 779 799
e 779 800
e 779 801
e 780 781
e 780 800
e 780 801
e 780 802
e 781 782
e 781 801
e 781 802
e 781 803
e 782 783
e 782 802
e 782 803
e 782 804
e 783 784
e 783 803
e 783 804
e 783 805
e 784 785
e 784 804
e 784 805
e 784 806
e 785 786
e 785 805
e 785 806
e 785 807
e 786 787
e 786 806
e 786 807
e 786 808
e 787 788
e 787 807
e 787 808
e 787 809
e 788 789
e 788 808
e 788 809
e 788 810
e 789 790
e 789 809
e 789 810
e 789 811
e 790 791
e 790 810
e 790 811
e 790 812
e 791 792
e 791 811
e 791 812
e 791 813
e 792 793
e 792 812
e 792 813
e 792 814
e 793 794
e 793 813
e 793 814
e 793 815
e 794 795
e 794 814
e 794 815
e 794 816
e 795 796
e 795 815
e 795 816
e 795 817
e 796 797
e 796 816
e 796 817
e 796 818
e 797 798
e 797 817
e 797 818
e 797 819
e 798 818
e 798 819
e 799 800
e 799 820
e 799 821
e 800 801
e 800 820
e 800 821
e 800 822
e 801 802
e 801 821
e 801 822
e 801 823
e 802 803
e 802 822
e 802 823
e 802 824
e 803 804
e 803 823
e 803 824
e 803 825
e 804 805
e 804 824
e 804 825
e 804 826
e 805 806
e 805 825
e 805 826
e 805 827
e 806 807
e 806 826
e 806 827
e 806 828
e 807 808
e 807 827
e 807 828
e 807 829
e 808 809
e 808 828
e 808 829
e 808 830
e 809 810
e 809 829
e 809 830
e 809 831
e 810 811
e 810 830
e 810 831
e 810 832
e 811 812
e 811 831
e 811 832
e 811 833
e 812 813
e 812 832
e 812 833
e 812 834
e 813 814
e 813 833
e 813 834
e 813 835
e 814 815
e 814 834
e 814 835
e 814 836
e 815 816
e 815 835
e 815 836
e 815 837
e 816 817
e 816 836
e 816 837
e 816 838
e 817 818
e 817 837
e 817 838
e 817 839
e 818 819
e 818 838
e 818 839
e 818 840
e 819 839
e 819 840
e 820 821
e 820 841
e 820 842
e 821 822
e 821 841
e 821 842
e 821 843
e 822 823
e 822 842
e 822 843
e 822 844
e 823 824
e 823 843
e 823 844
e 823 845
e 824 825
e 824 844
e 824 845
e 824 846
e 825 826
e 825 845
e 825 846
e 825 847
e 826 827
e 826 846
e 826 847
e 826 848
e 827 828
e 827 847
e 827 848
e 827 849
e 828 829
e 828 848
e 828 849
e 828 850
e 829 830
e 829 849
e 829 850
e 829 851
e 830 831
e 830 850
e 830 851
e 830 852
e 831 832
e 831 851
e 831 852
e 831 853
e 832 833
e 832 852
e 832 853
e 832 854
e 833 834
e 833 853
e 833 854
e 833 855
e 834 835
e 834 854
e 834 855
e 834 856
e 835 836
e 835 855
e 835 856
e 835 857
e 836 837
e 836 856
e 836 857
e 836 858
e 837 838
e 837 857
e 837 858
e 837 859
e 838 839
e 838 858
e 838 859
e 838 860
e 839 840
e 839 859
e 839 860
e 839 861
e 840 860
e 840 861
e 841 842
e 842 843
e 843 844
e 844 845
e 845 846
e 846 847
e 847 848
e 848 849
e 849 850
e 850 851
e 851 852
e 852 853
e 853 854
e 854 855
e 855 856
e 856 857
e 857 858
e 858 859
e 859 860
e 860 861
e 862 863
e 862 874
e 862 878
e 863 864
e 863 878
e 864 865
e 864 875
e 864 878
e 865 866
e 865 875
e 866 867
e 866 875
e 867 868
e 868 869
e 868 876
e 869 870
e 869 876
e 870 876
e 870 877
e 871 872
e 871 877
e 872 873
e 872 877
e 875 878
e 876 877
